% seed = 0

mint = 20;
% maxt = 69;

nActs = 32;
dur = [0,2,2,1,2,1,4,3,1,3,2,2,2,4,1,1,2,1,2,2,4,2,1,2,3,4,3,3,3,4,2,0];

nSkills = 9;
sreq = [| 0,0,0,0,0,0,0,0,0,
	| 0,1,2,0,0,0,0,0,0,
	| 0,0,0,0,1,0,1,0,0,
	| 0,0,0,0,0,0,0,2,0,
	| 0,2,0,0,0,0,0,1,0,
	| 0,0,0,0,0,0,0,1,0,
	| 0,0,1,1,0,0,0,1,0,
	| 0,0,1,0,0,0,0,0,0,
	| 0,0,0,0,0,1,0,1,0,
	| 0,0,0,0,0,1,0,1,0,
	| 0,1,0,0,0,0,0,0,0,
	| 0,0,0,0,1,0,0,0,0,
	| 0,0,1,0,0,1,0,1,0,
	| 0,0,0,0,1,0,1,0,0,
	| 0,0,0,0,0,0,0,1,0,
	| 0,0,1,0,0,0,0,0,0,
	| 0,0,0,0,0,1,0,0,0,
	| 0,0,0,0,0,0,1,2,0,
	| 0,0,0,0,0,1,0,0,0,
	| 0,0,0,0,0,1,0,0,0,
	| 0,0,2,0,0,0,0,1,0,
	| 0,0,1,0,0,0,0,0,0,
	| 0,0,0,0,0,1,0,2,0,
	| 0,0,0,1,0,0,0,0,0,
	| 0,0,1,0,0,0,0,0,0,
	| 0,0,1,0,0,0,0,2,0,
	| 1,0,0,0,0,1,0,0,0,
	| 0,0,1,0,0,0,0,1,0,
	| 0,0,0,0,0,0,0,2,1,
	| 0,0,0,0,0,0,0,1,0,
	| 0,0,0,1,0,1,1,0,0,
	| 0,0,0,0,0,0,0,0,0, |];

% SumOfsreq = 57;

nResources = 9;
mastery = [| false,false,false,false,false,false,false,true,true,
	| true,true,true,false,true,true,true,true,true,
	| false,false,false,false,false,false,true,true,true,
	| false,false,false,true,true,true,false,false,false,
	| false,false,true,false,false,true,false,false,false,
	| false,true,true,false,false,false,false,true,true,
	| false,false,false,false,true,true,true,true,true,
	| false,false,true,false,false,true,false,false,false,
	| false,true,true,false,false,false,false,false,false, |];

nPrecs = 48;
pred = [1,1,1,2,3,3,4,4,4,5,5,6,6,6,7,7,8,8,9,9,10,10,11,12,12,13,13,13,14,15,16,17,18,19,20,20,21,22,23,24,24,25,26,27,28,29,30,31];
succ = [2,3,4,7,13,8,18,5,6,11,15,9,17,12,10,20,26,22,24,16,25,29,13,28,30,19,29,14,23,27,27,19,25,21,30,24,25,31,27,26,31,31,28,30,29,32,32,32];

nUnrels = 280;
unpred = [2,2,2,2,2,2,2,2,2,2,2,2,2,2,2,2,2,2,2,3,3,3,3,3,3,3,3,3,3,3,3,3,3,4,4,4,4,4,5,5,5,5,5,5,5,5,5,5,5,5,5,5,6,6,6,6,6,6,6,6,6,6,6,7,7,7,7,7,7,7,7,7,7,7,7,7,7,7,8,8,8,8,8,8,8,8,8,8,8,8,8,8,8,8,8,8,9,9,9,9,9,9,9,9,9,9,9,9,9,9,10,10,10,10,10,10,10,10,10,10,10,10,10,10,10,10,10,10,11,11,11,11,11,11,11,11,11,11,12,12,12,12,12,12,12,12,12,12,12,12,12,12,12,12,13,13,13,13,13,13,13,13,13,14,14,14,14,14,14,14,14,14,14,14,14,14,14,15,15,15,15,15,15,15,15,15,15,15,15,15,15,16,16,16,16,16,16,16,16,16,16,16,16,16,17,17,17,17,17,17,17,17,17,17,18,18,18,18,18,18,18,18,18,18,18,19,19,19,19,19,19,19,19,19,20,20,20,20,20,21,21,21,21,21,21,21,21,22,22,22,22,22,22,22,22,23,23,23,23,23,23,24,24,24,25,25,25,25,25,26,26,26,27,27,27,28,28,29,29,30];
unsucc = [3,4,5,6,8,9,11,12,13,14,15,16,17,18,19,21,22,23,27,4,5,6,7,9,10,11,12,15,16,17,18,20,24,7,8,10,20,22,6,7,8,9,10,12,16,17,18,20,22,24,26,28,7,8,10,11,13,14,15,18,20,22,23,8,9,11,12,13,14,15,16,17,18,19,21,22,23,27,9,10,11,12,13,14,15,16,17,18,19,20,21,23,24,25,27,30,10,11,12,13,14,15,17,18,19,20,21,22,23,25,11,12,13,14,15,16,17,18,19,20,21,22,23,24,26,27,28,30,12,15,16,17,18,20,22,24,26,28,13,14,15,16,17,18,19,20,21,22,23,24,25,26,27,31,15,16,17,18,20,22,24,26,28,15,16,17,18,19,20,21,22,24,25,26,28,29,31,16,17,18,19,20,21,22,23,24,25,26,28,29,31,17,18,19,20,21,22,23,24,25,26,28,29,31,18,20,22,23,24,26,27,28,29,30,19,20,21,22,23,24,26,27,28,29,30,20,22,23,24,26,27,28,29,30,21,22,23,25,27,22,23,24,26,27,28,29,30,23,24,25,26,27,28,29,30,24,25,26,28,29,31,25,27,30,26,27,28,29,30,27,30,31,28,29,31,30,31,30,31,31];

USEFUL_RES = [{},
	{2,5,6,8,9},
	{2,3,4,7},
	{1,2,3,6,7},
	{1,2,3,6,7,9},
	{1,2,3,6,7},
	{1,2,3,4,5,6,7,8,9},
	{2,5,6,8,9},
	{1,2,3,4,5,6,7,8},
	{1,2,3,4,5,6,7,8},
	{2,6,9},
	{2,4,7},
	{1,2,3,4,5,6,7,8,9},
	{2,3,4,7},
	{1,2,3,6,7},
	{2,5,6,8,9},
	{2,4,5,7,8},
	{1,2,3,6,7},
	{2,4,5,7,8},
	{2,4,5,7,8},
	{1,2,3,5,6,7,8,9},
	{2,5,6,8,9},
	{1,2,3,4,5,6,7,8},
	{4},
	{2,5,6,8,9},
	{1,2,3,5,6,7,8,9},
	{2,4,5,7,8},
	{1,2,3,5,6,7,8,9},
	{1,2,3,6,7},
	{1,2,3,6,7},
	{2,3,4,5,7,8},
	{}];

POTENTIAL_ACT = [{4,5,6,7,9,10,13,15,18,21,23,26,28,29,30},
	{2,3,4,5,6,7,8,9,10,11,12,13,14,15,16,17,18,19,20,21,22,23,25,26,27,28,29,30,31},
	{3,4,5,6,7,9,10,13,14,15,18,21,23,26,28,29,30,31},
	{3,7,9,10,12,13,14,17,19,20,23,24,27,31},
	{2,7,8,9,10,13,16,17,19,20,21,22,23,25,26,27,28,31},
	{2,4,5,6,7,8,9,10,11,13,15,16,18,21,22,23,25,26,28,29,30},
	{3,4,5,6,7,9,10,12,13,14,15,17,18,19,20,21,23,26,27,28,29,30,31},
	{2,7,8,9,10,13,16,17,19,20,21,22,23,25,26,27,28,31},
	{2,5,7,8,11,13,16,21,22,25,26,28}];
